c Result of efficient AIG-to-CNF conversion using package CNF
p cnf 425 1187
1 401 403 0
-1 -401 0
-1 -403 0
2 -401 417 0
-2 401 0
-2 -417 0
3 1 2 0
-3 -1 0
-3 -2 0
4 401 404 0
-4 -401 0
-4 -404 0
5 -401 418 0
-5 401 0
-5 -418 0
6 4 5 0
-6 -4 0
-6 -5 0
7 401 405 0
-7 -401 0
-7 -405 0
8 -401 419 0
-8 401 0
-8 -419 0
9 7 8 0
-9 -7 0
-9 -8 0
10 401 406 0
-10 -401 0
-10 -406 0
11 -401 420 0
-11 401 0
-11 -420 0
12 10 11 0
-12 -10 0
-12 -11 0
13 401 407 0
-13 -401 0
-13 -407 0
14 -401 421 0
-14 401 0
-14 -421 0
15 13 14 0
-15 -13 0
-15 -14 0
16 401 408 0
-16 -401 0
-16 -408 0
17 -401 422 0
-17 401 0
-17 -422 0
18 16 17 0
-18 -16 0
-18 -17 0
19 -401 423 0
-19 401 0
-19 -423 0
20 397 401 0
-20 -397 0
-20 -401 0
21 19 20 0
-21 -19 0
-21 -20 0
22 396 -401 0
-22 -396 0
-22 401 0
23 399 401 0
-23 -399 0
-23 -401 0
24 22 23 0
-24 -22 0
-24 -23 0
25 400 -403 0
-25 -400 0
-25 403 0
26 -400 403 0
-26 400 0
-26 -403 0
27 25 26 0
-27 -25 0
-27 -26 0
28 -398 -27 0
-28 398 0
-28 27 0
29 -402 -409 0
-29 402 0
-29 409 0
30 398 -29 0
-30 -398 0
-30 29 0
31 402 -417 0
-31 -402 0
-31 417 0
32 398 -31 0
-32 -398 0
-32 31 0
33 30 32 0
-33 -30 0
-33 -32 0
34 28 -33 0
-34 -28 0
-34 33 0
35 402 418 0
-35 -402 0
-35 -418 0
36 -402 410 0
-36 402 0
-36 -410 0
37 35 36 0
-37 -35 0
-37 -36 0
38 398 -37 0
-38 -398 0
-38 37 0
39 400 403 0
-39 -400 0
-39 -403 0
40 404 39 0
-40 -404 0
-40 -39 0
41 -404 -39 0
-41 404 0
-41 39 0
42 40 41 0
-42 -40 0
-42 -41 0
43 -398 -42 0
-43 398 0
-43 42 0
44 38 43 0
-44 -38 0
-44 -43 0
45 402 419 0
-45 -402 0
-45 -419 0
46 398 -45 0
-46 -398 0
-46 45 0
47 -402 411 0
-47 402 0
-47 -411 0
48 398 -47 0
-48 -398 0
-48 47 0
49 46 48 0
-49 -46 0
-49 -48 0
50 403 404 0
-50 -403 0
-50 -404 0
51 400 -50 0
-51 -400 0
-51 50 0
52 -405 51 0
-52 405 0
-52 -51 0
53 -398 52 0
-53 398 0
-53 -52 0
54 404 405 0
-54 -404 0
-54 -405 0
55 403 -54 0
-55 -403 0
-55 54 0
56 400 -55 0
-56 -400 0
-56 55 0
57 -53 56 0
-57 53 0
-57 -56 0
58 -49 57 0
-58 49 0
-58 -57 0
59 402 420 0
-59 -402 0
-59 -420 0
60 398 -59 0
-60 -398 0
-60 59 0
61 -402 412 0
-61 402 0
-61 -412 0
62 398 -61 0
-62 -398 0
-62 61 0
63 60 62 0
-63 -60 0
-63 -62 0
64 405 406 0
-64 -405 0
-64 -406 0
65 -51 -64 0
-65 51 0
-65 64 0
66 -398 65 0
-66 398 0
-66 -65 0
67 -406 56 0
-67 406 0
-67 -56 0
68 -66 67 0
-68 66 0
-68 -67 0
69 -63 68 0
-69 63 0
-69 -68 0
70 402 421 0
-70 -402 0
-70 -421 0
71 398 -70 0
-71 -398 0
-71 70 0
72 -402 413 0
-72 402 0
-72 -413 0
73 398 -72 0
-73 -398 0
-73 72 0
74 71 73 0
-74 -71 0
-74 -73 0
75 -39 -64 0
-75 39 0
-75 64 0
76 404 -75 0
-76 -404 0
-76 75 0
77 -407 76 0
-77 407 0
-77 -76 0
78 -398 77 0
-78 398 0
-78 -77 0
79 407 -75 0
-79 -407 0
-79 75 0
80 404 -79 0
-80 -404 0
-80 79 0
81 -78 80 0
-81 78 0
-81 -80 0
82 -74 81 0
-82 74 0
-82 -81 0
83 402 422 0
-83 -402 0
-83 -422 0
84 398 -83 0
-84 -398 0
-84 83 0
85 -402 414 0
-85 402 0
-85 -414 0
86 398 -85 0
-86 -398 0
-86 85 0
87 84 86 0
-87 -84 0
-87 -86 0
88 407 408 0
-88 -407 0
-88 -408 0
89 -64 -88 0
-89 64 0
-89 88 0
90 -39 -89 0
-90 39 0
-90 89 0
91 404 -90 0
-91 -404 0
-91 90 0
92 -398 91 0
-92 398 0
-92 -91 0
93 -408 80 0
-93 408 0
-93 -80 0
94 -92 93 0
-94 92 0
-94 -93 0
95 -87 94 0
-95 87 0
-95 -94 0
96 -402 415 0
-96 402 0
-96 -415 0
97 398 -96 0
-97 -398 0
-97 96 0
98 402 423 0
-98 -402 0
-98 -423 0
99 398 -98 0
-99 -398 0
-99 98 0
100 97 99 0
-100 -97 0
-100 -99 0
101 -397 91 0
-101 397 0
-101 -91 0
102 -398 101 0
-102 398 0
-102 -101 0
103 -51 -89 0
-103 51 0
-103 89 0
104 397 -103 0
-104 -397 0
-104 103 0
105 -102 104 0
-105 102 0
-105 -104 0
106 -100 105 0
-106 100 0
-106 -105 0
107 -402 416 0
-107 402 0
-107 -416 0
108 398 -107 0
-108 -398 0
-108 107 0
109 398 402 0
-109 -398 0
-109 -402 0
110 396 -109 0
-110 -396 0
-110 109 0
111 108 110 0
-111 -108 0
-111 -110 0
112 397 399 0
-112 -397 0
-112 -399 0
113 -88 -112 0
-113 88 0
-113 112 0
114 -64 -113 0
-114 64 0
-114 113 0
115 -51 -114 0
-115 51 0
-115 114 0
116 -398 115 0
-116 398 0
-116 -115 0
117 397 -91 0
-117 -397 0
-117 91 0
118 -399 117 0
-118 399 0
-118 -117 0
119 -116 118 0
-119 116 0
-119 -118 0
120 -111 119 0
-120 111 0
-120 -119 0
121 -400 -401 0
-121 400 0
-121 401 0
122 -398 -121 0
-122 398 0
-122 121 0
123 -403 404 0
-123 403 0
-123 -404 0
124 400 -123 0
-124 -400 0
-124 123 0
125 -398 -124 0
-125 398 0
-125 124 0
126 -114 -125 0
-126 114 0
-126 125 0
127 122 126 0
-127 -122 0
-127 -126 0
128 403 -3 0
-128 -403 0
-128 3 0
129 -403 3 0
-129 403 0
-129 -3 0
130 128 129 0
-130 -128 0
-130 -129 0
131 6 128 0
-131 -6 0
-131 -128 0
132 -6 -128 0
-132 6 0
-132 128 0
133 131 132 0
-133 -131 0
-133 -132 0
134 6 -133 0
-134 -6 0
-134 133 0
135 -6 133 0
-135 6 0
-135 -133 0
136 134 135 0
-136 -134 0
-136 -135 0
137 9 128 0
-137 -9 0
-137 -128 0
138 -9 -128 0
-138 9 0
-138 128 0
139 137 138 0
-139 -137 0
-139 -138 0
140 9 -139 0
-140 -9 0
-140 139 0
141 -9 139 0
-141 9 0
-141 -139 0
142 140 141 0
-142 -140 0
-142 -141 0
143 12 128 0
-143 -12 0
-143 -128 0
144 -12 -128 0
-144 12 0
-144 128 0
145 143 144 0
-145 -143 0
-145 -144 0
146 406 -145 0
-146 -406 0
-146 145 0
147 -406 145 0
-147 406 0
-147 -145 0
148 146 147 0
-148 -146 0
-148 -147 0
149 406 -12 0
-149 -406 0
-149 12 0
150 -406 12 0
-150 406 0
-150 -12 0
151 -128 150 0
-151 128 0
-151 -150 0
152 128 -149 0
-152 -128 0
-152 149 0
153 151 152 0
-153 -151 0
-153 -152 0
154 15 -153 0
-154 -15 0
-154 153 0
155 -15 153 0
-155 15 0
-155 -153 0
156 154 155 0
-156 -154 0
-156 -155 0
157 15 -156 0
-157 -15 0
-157 156 0
158 -15 156 0
-158 15 0
-158 -156 0
159 157 158 0
-159 -157 0
-159 -158 0
160 18 -153 0
-160 -18 0
-160 153 0
161 -18 153 0
-161 18 0
-161 -153 0
162 160 161 0
-162 -160 0
-162 -161 0
163 401 -162 0
-163 -401 0
-163 162 0
164 -401 162 0
-164 401 0
-164 -162 0
165 163 164 0
-165 -163 0
-165 -164 0
166 401 -18 0
-166 -401 0
-166 18 0
167 -401 18 0
-167 401 0
-167 -18 0
168 153 167 0
-168 -153 0
-168 -167 0
169 -153 -166 0
-169 153 0
-169 166 0
170 168 169 0
-170 -168 0
-170 -169 0
171 21 -170 0
-171 -21 0
-171 170 0
172 -21 170 0
-172 21 0
-172 -170 0
173 171 172 0
-173 -171 0
-173 -172 0
174 21 -173 0
-174 -21 0
-174 173 0
175 -21 173 0
-175 21 0
-175 -173 0
176 174 175 0
-176 -174 0
-176 -175 0
177 24 -170 0
-177 -24 0
-177 170 0
178 -24 170 0
-178 24 0
-178 -170 0
179 177 178 0
-179 -177 0
-179 -178 0
180 24 -179 0
-180 -24 0
-180 179 0
181 -24 179 0
-181 24 0
-181 -179 0
182 180 181 0
-182 -180 0
-182 -181 0
183 -401 -170 0
-183 401 0
-183 170 0
184 401 170 0
-184 -401 0
-184 -170 0
185 183 184 0
-185 -183 0
-185 -184 0
186 -401 -185 0
-186 401 0
-186 185 0
187 401 185 0
-187 -401 0
-187 -185 0
188 186 187 0
-188 -186 0
-188 -187 0
189 34 -170 0
-189 -34 0
-189 170 0
190 -34 170 0
-190 34 0
-190 -170 0
191 189 190 0
-191 -189 0
-191 -190 0
192 398 -191 0
-192 -398 0
-192 191 0
193 -398 191 0
-193 398 0
-193 -191 0
194 192 193 0
-194 -192 0
-194 -193 0
195 398 -34 0
-195 -398 0
-195 34 0
196 -398 34 0
-196 398 0
-196 -34 0
197 170 196 0
-197 -170 0
-197 -196 0
198 -170 -195 0
-198 170 0
-198 195 0
199 197 198 0
-199 -197 0
-199 -198 0
200 44 -199 0
-200 -44 0
-200 199 0
201 -44 199 0
-201 44 0
-201 -199 0
202 200 201 0
-202 -200 0
-202 -201 0
203 403 -202 0
-203 -403 0
-203 202 0
204 -403 202 0
-204 403 0
-204 -202 0
205 203 204 0
-205 -203 0
-205 -204 0
206 403 -44 0
-206 -403 0
-206 44 0
207 -403 44 0
-207 403 0
-207 -44 0
208 199 207 0
-208 -199 0
-208 -207 0
209 -199 -206 0
-209 199 0
-209 206 0
210 208 209 0
-210 -208 0
-210 -209 0
211 -58 -210 0
-211 58 0
-211 210 0
212 58 210 0
-212 -58 0
-212 -210 0
213 211 212 0
-213 -211 0
-213 -212 0
214 398 -213 0
-214 -398 0
-214 213 0
215 -398 213 0
-215 398 0
-215 -213 0
216 214 215 0
-216 -214 0
-216 -215 0
217 398 58 0
-217 -398 0
-217 -58 0
218 -398 -58 0
-218 398 0
-218 58 0
219 210 218 0
-219 -210 0
-219 -218 0
220 -210 -217 0
-220 210 0
-220 217 0
221 219 220 0
-221 -219 0
-221 -220 0
222 -69 -221 0
-222 69 0
-222 221 0
223 69 221 0
-223 -69 0
-223 -221 0
224 222 223 0
-224 -222 0
-224 -223 0
225 403 -224 0
-225 -403 0
-225 224 0
226 -403 224 0
-226 403 0
-226 -224 0
227 225 226 0
-227 -225 0
-227 -226 0
228 403 69 0
-228 -403 0
-228 -69 0
229 -403 -69 0
-229 403 0
-229 69 0
230 221 229 0
-230 -221 0
-230 -229 0
231 -221 -228 0
-231 221 0
-231 228 0
232 230 231 0
-232 -230 0
-232 -231 0
233 -82 -232 0
-233 82 0
-233 232 0
234 82 232 0
-234 -82 0
-234 -232 0
235 233 234 0
-235 -233 0
-235 -234 0
236 -82 -235 0
-236 82 0
-236 235 0
237 82 235 0
-237 -82 0
-237 -235 0
238 236 237 0
-238 -236 0
-238 -237 0
239 -95 -232 0
-239 95 0
-239 232 0
240 95 232 0
-240 -95 0
-240 -232 0
241 239 240 0
-241 -239 0
-241 -240 0
242 -95 -241 0
-242 95 0
-242 241 0
243 95 241 0
-243 -95 0
-243 -241 0
244 242 243 0
-244 -242 0
-244 -243 0
245 -106 -232 0
-245 106 0
-245 232 0
246 106 232 0
-246 -106 0
-246 -232 0
247 245 246 0
-247 -245 0
-247 -246 0
248 -106 -247 0
-248 106 0
-248 247 0
249 106 247 0
-249 -106 0
-249 -247 0
250 248 249 0
-250 -248 0
-250 -249 0
251 -120 -232 0
-251 120 0
-251 232 0
252 120 232 0
-252 -120 0
-252 -232 0
253 251 252 0
-253 -251 0
-253 -252 0
254 -120 -253 0
-254 120 0
-254 253 0
255 120 253 0
-255 -120 0
-255 -253 0
256 254 255 0
-256 -254 0
-256 -255 0
257 127 -232 0
-257 -127 0
-257 232 0
258 -127 232 0
-258 127 0
-258 -232 0
259 257 258 0
-259 -257 0
-259 -258 0
260 127 -259 0
-260 -127 0
-260 259 0
261 -127 259 0
-261 127 0
-261 -259 0
262 260 261 0
-262 -260 0
-262 -261 0
263 -130 -136 0
-263 130 0
-263 136 0
264 -142 263 0
-264 142 0
-264 -263 0
265 142 -263 0
-265 -142 0
-265 263 0
266 264 265 0
-266 -264 0
-266 -265 0
267 -142 -263 0
-267 142 0
-267 263 0
268 -148 267 0
-268 148 0
-268 -267 0
269 148 -267 0
-269 -148 0
-269 267 0
270 268 269 0
-270 -268 0
-270 -269 0
271 -148 -267 0
-271 148 0
-271 267 0
272 -159 271 0
-272 159 0
-272 -271 0
273 159 -271 0
-273 -159 0
-273 271 0
274 272 273 0
-274 -272 0
-274 -273 0
275 -159 -271 0
-275 159 0
-275 271 0
276 -165 275 0
-276 165 0
-276 -275 0
277 165 -275 0
-277 -165 0
-277 275 0
278 276 277 0
-278 -276 0
-278 -277 0
279 -165 -275 0
-279 165 0
-279 275 0
280 -176 279 0
-280 176 0
-280 -279 0
281 176 -279 0
-281 -176 0
-281 279 0
282 280 281 0
-282 -280 0
-282 -281 0
283 -176 -279 0
-283 176 0
-283 279 0
284 -182 283 0
-284 182 0
-284 -283 0
285 182 -283 0
-285 -182 0
-285 283 0
286 284 285 0
-286 -284 0
-286 -285 0
287 -182 -283 0
-287 182 0
-287 283 0
288 -188 287 0
-288 188 0
-288 -287 0
289 188 -287 0
-289 -188 0
-289 287 0
290 288 289 0
-290 -288 0
-290 -289 0
291 -188 -287 0
-291 188 0
-291 287 0
292 -194 291 0
-292 194 0
-292 -291 0
293 194 -291 0
-293 -194 0
-293 291 0
294 292 293 0
-294 -292 0
-294 -293 0
295 -194 -291 0
-295 194 0
-295 291 0
296 -205 295 0
-296 205 0
-296 -295 0
297 205 -295 0
-297 -205 0
-297 295 0
298 296 297 0
-298 -296 0
-298 -297 0
299 -205 -295 0
-299 205 0
-299 295 0
300 -216 299 0
-300 216 0
-300 -299 0
301 216 -299 0
-301 -216 0
-301 299 0
302 300 301 0
-302 -300 0
-302 -301 0
303 -216 -299 0
-303 216 0
-303 299 0
304 -227 303 0
-304 227 0
-304 -303 0
305 227 -303 0
-305 -227 0
-305 303 0
306 304 305 0
-306 -304 0
-306 -305 0
307 -227 -303 0
-307 227 0
-307 303 0
308 -238 307 0
-308 238 0
-308 -307 0
309 238 -307 0
-309 -238 0
-309 307 0
310 308 309 0
-310 -308 0
-310 -309 0
311 -238 -307 0
-311 238 0
-311 307 0
312 -244 311 0
-312 244 0
-312 -311 0
313 244 -311 0
-313 -244 0
-313 311 0
314 312 313 0
-314 -312 0
-314 -313 0
315 -244 -311 0
-315 244 0
-315 311 0
316 -250 315 0
-316 250 0
-316 -315 0
317 250 -315 0
-317 -250 0
-317 315 0
318 316 317 0
-318 -316 0
-318 -317 0
319 -250 -315 0
-319 250 0
-319 315 0
320 -256 319 0
-320 256 0
-320 -319 0
321 256 -319 0
-321 -256 0
-321 319 0
322 320 321 0
-322 -320 0
-322 -321 0
323 -256 -319 0
-323 256 0
-323 319 0
324 -262 323 0
-324 262 0
-324 -323 0
325 262 -323 0
-325 -262 0
-325 323 0
326 324 325 0
-326 -324 0
-326 -325 0
327 142 -232 0
-327 -142 0
-327 232 0
328 232 266 0
-328 -232 0
-328 -266 0
329 327 328 0
-329 -327 0
-329 -328 0
330 148 -232 0
-330 -148 0
-330 232 0
331 232 270 0
-331 -232 0
-331 -270 0
332 330 331 0
-332 -330 0
-332 -331 0
333 159 -232 0
-333 -159 0
-333 232 0
334 232 274 0
-334 -232 0
-334 -274 0
335 333 334 0
-335 -333 0
-335 -334 0
336 165 -232 0
-336 -165 0
-336 232 0
337 232 278 0
-337 -232 0
-337 -278 0
338 336 337 0
-338 -336 0
-338 -337 0
339 176 -232 0
-339 -176 0
-339 232 0
340 232 282 0
-340 -232 0
-340 -282 0
341 339 340 0
-341 -339 0
-341 -340 0
342 182 -232 0
-342 -182 0
-342 232 0
343 232 286 0
-343 -232 0
-343 -286 0
344 342 343 0
-344 -342 0
-344 -343 0
345 188 -232 0
-345 -188 0
-345 232 0
346 232 290 0
-346 -232 0
-346 -290 0
347 345 346 0
-347 -345 0
-347 -346 0
348 194 -232 0
-348 -194 0
-348 232 0
349 232 294 0
-349 -232 0
-349 -294 0
350 348 349 0
-350 -348 0
-350 -349 0
351 205 -232 0
-351 -205 0
-351 232 0
352 232 298 0
-352 -232 0
-352 -298 0
353 351 352 0
-353 -351 0
-353 -352 0
354 216 -232 0
-354 -216 0
-354 232 0
355 232 302 0
-355 -232 0
-355 -302 0
356 354 355 0
-356 -354 0
-356 -355 0
357 227 -232 0
-357 -227 0
-357 232 0
358 232 306 0
-358 -232 0
-358 -306 0
359 357 358 0
-359 -357 0
-359 -358 0
360 -232 238 0
-360 232 0
-360 -238 0
361 232 310 0
-361 -232 0
-361 -310 0
362 360 361 0
-362 -360 0
-362 -361 0
363 -232 244 0
-363 232 0
-363 -244 0
364 232 314 0
-364 -232 0
-364 -314 0
365 363 364 0
-365 -363 0
-365 -364 0
366 -232 250 0
-366 232 0
-366 -250 0
367 232 318 0
-367 -232 0
-367 -318 0
368 366 367 0
-368 -366 0
-368 -367 0
369 -232 256 0
-369 232 0
-369 -256 0
370 232 322 0
-370 -232 0
-370 -322 0
371 369 370 0
-371 -369 0
-371 -370 0
372 -232 262 0
-372 232 0
-372 -262 0
373 232 326 0
-373 -232 0
-373 -326 0
374 372 373 0
-374 -372 0
-374 -373 0
375 -329 -332 0
-375 329 0
-375 332 0
376 335 -375 0
-376 -335 0
-376 375 0
377 335 376 0
-377 -335 0
-377 -376 0
378 338 377 0
-378 -338 0
-378 -377 0
379 338 378 0
-379 -338 0
-379 -378 0
380 -341 379 0
-380 341 0
-380 -379 0
381 -344 -380 0
-381 344 0
-381 380 0
382 347 -381 0
-382 -347 0
-382 381 0
383 347 382 0
-383 -347 0
-383 -382 0
384 350 383 0
-384 -350 0
-384 -383 0
385 350 384 0
-385 -350 0
-385 -384 0
386 -353 385 0
-386 353 0
-386 -385 0
387 -356 -386 0
-387 356 0
-387 386 0
388 359 -387 0
-388 -359 0
-388 387 0
389 359 388 0
-389 -359 0
-389 -388 0
390 362 389 0
-390 -362 0
-390 -389 0
391 362 390 0
-391 -362 0
-391 -390 0
392 -365 391 0
-392 365 0
-392 -391 0
393 -368 -392 0
-393 368 0
-393 392 0
394 -371 -393 0
-394 371 0
-394 393 0
395 -374 -394 0
-395 374 0
-395 394 0
424 0
395 0

